NAME : single
TYPE : ATSP
DIMENSION : 13
EDGE_WEIGHT_TYPE : EXPLICIT
EDGE_WEIGHT_FORMAT : FULL_MATRIX
EDGE_WEIGHT_SECTION
0 536 614 802 677 523 813 842 691 351 433 212 272 
0 0 135 227 132 540 50000 50000 50000 503 576 351 420 
0 135 0 167 204 622 873 959 50000 575 707 423 492 
0 227 167 0 138 706 946 1062 50000 695 913 548 609 
0 132 204 138 0 593 864 972 50000 631 699 433 508 
0 540 622 706 593 0 50000 50000 50000 144 273 212 172 
0 50000 873 946 864 50000 0 84 187 532 535 636 588 
0 50000 959 1062 972 50000 84 0 154 534 460 639 587 
0 50000 50000 50000 50000 50000 187 154 0 349 310 455 406 
0 503 575 695 631 144 532 534 349 0 173 221 184 
0 576 707 913 699 273 535 460 310 173 0 226 237 
0 351 423 548 433 212 636 639 455 221 226 0 44 
0 420 492 609 508 172 588 587 406 184 237 44 0 
EOF